problem_generation/data/GISP/train/er_n=68_m=1392_p=0.60_SET2_setparam=100.00_alpha=0.50_673.lp
maximize
OBJ:100x0 + 100x1 + 100x2 + 100x3 + 100x4 + 100x5 + 100x6 + 100x7 + 100x8 + 100x9 + 100x10 + 100x11 + 100x12 + 100x13 + 100x14 + 100x15 + 100x16 + 100x17 + 100x18 + 100x19 + 100x20 + 100x21 + 100x22 + 100x23 + 100x24 + 100x25 + 100x26 + 100x27 + 100x28 + 100x29 + 100x30 + 100x31 + 100x32 + 100x33 + 100x34 + 100x35 + 100x36 + 100x37 + 100x38 + 100x39 + 100x40 + 100x41 + 100x42 + 100x43 + 100x44 + 100x45 + 100x46 + 100x47 + 100x48 + 100x49 + 100x50 + 100x51 + 100x52 + 100x53 + 100x54 + 100x55 + 100x56 + 100x57 + 100x58 + 100x59 + 100x60 + 100x61 + 100x62 + 100x63 + 100x64 + 100x65 + 100x66 + 100x67 - y55_57 - y7_17 - y47_53 - y26_30 - y18_26 - y15_39 - y28_58 - y7_35 - y17_67 - y28_67 - y8_9 - y0_5 - y29_50 - y40_50 - y0_23 - y29_59 - y6_66 - y21_64 - y10_27 - y10_36 - y41_51 - y10_45 - y44_56 - y3_15 - y22_28 - y43_60 - y24_65 - y36_57 - y18_30 - y36_66 - y17_62 - y6_34 - y0_9 - y29_45 - y40_45 - y6_52 - y40_63 - y44_51 - y43_55 - y14_28 - y35_60 - y14_37 - y1_67 - y36_43 - y55_56 - y17_39 - y28_39 - y36_52 - y17_48 - y9_44 - y5_55 - y28_57 - y5_64 - y28_66 - y6_38 - y40_49 - y2_22 - y22_27 - y24_46 - y51_63 - y13_55 - y24_55 - y35_55 - y17_25 - y17_34 - y28_34 - y7_11 - y9_30 - y36_47 - y5_41 - y5_50 - y6_15 - y36_65 - y5_59 - y9_57 - y6_33 - y6_42 - y10_12 - y39_57 - y20_53 - y31_53 - y54_55 - y2_26 - y10_39 - y13_32 - y24_32 - y3_18 - y32_54 - y51_67 - y32_63 - y1_57 - y35_59 - y16_55 - y17_29 - y17_38 - y36_51 - y5_45 - y58_66 - y9_61 - y21_35 - y39_43 - y10_16 - y10_25 - y54_59 - y31_66 - y24_27 - y1_34 - y24_36 - y1_43 - y43_58 - y16_41 - y16_50 - y1_61 - y13_63 - y35_63 - y57_60 - y36_37 - y17_33 - y49_65 - y17_42 - y42_44 - y27_55 - y8_51 - y21_30 - y30_60 - y42_62 - y20_34 - y0_65 - y2_7 - y12_39 - y20_52 - y12_48 - y4_44 - y16_18 - y1_29 - y53_67 - y32_44 - y43_44 - y64_67 - y24_49 - y16_45 - y5_17 - y17_19 - y17_28 - y9_24 - y49_60 - y5_35 - y6_9 - y27_41 - y19_55 - y11_51 - y8_64 - y11_60 - y12_25 - y39_42 - y20_38 - y31_38 - y23_34 - y20_47 - y31_47 - y12_43 - y23_52 - y4_48 - y53_62 - y4_57 - y1_33 - y46_50 - y38_46 - y57_59 - y26_53 - y38_64 - y27_36 - y6_13 - y18_67 - y30_41 - y0_46 - y11_46 - y30_59 - y20_24 - y42_61 - y11_55 - y20_33 - y11_64 - y23_47 - y64_66 - y22_60 - y16_35 - y65_67 - y15_48 - y46_63 - y7_44 - y57_63 - y49_59 - y18_53 - y18_62 - y19_27 - y27_40 - y19_36 - y30_36 - y27_49 - y11_32 - y50_51 - y30_45 - y27_58 - y8_54 - y0_50 - y11_50 - y12_15 - y20_28 - y12_24 - y23_24 - y41_60 - y4_20 - y33_65 - y23_42 - y1_5 - y13_16 - y34_48 - y45_48 - y1_23 - y34_57 - y16_30 - y14_60 - y37_62 - y26_34 - y15_43 - y8_13 - y38_63 - y18_57 - y8_31 - y19_31 - y0_36 - y11_36 - y8_49 - y31_32 - y33_51 - y12_28 - y23_28 - y33_60 - y25_56 - y1_18 - y45_52 - y37_48 - y34_61 - y56_61 - y15_20 - y14_64 - y26_29 - y37_66 - y15_47 - y26_47 - y7_43 - y15_56 - y8_17 - y26_65 - y8_26 - y19_26 - y27_39 - y11_31 - y0_40 - y12_14 - y60_63 - y4_10 - y33_46 - y25_60 - y45_47 - y3_41 - y22_54 - y45_56 - y14_50 - y3_59 - y14_59 - y26_33 - y7_29 - y7_38 - y18_38 - y18_47 - y7_56 - y11_17 - y8_30 - y19_30 - y6_60 - y11_26 - y63_64 - y41_45 - y33_50 - y41_63 - y2_44 - y25_46 - y10_66 - y25_64 - y14_27 - y34_42 - y14_36 - y34_51 - y22_58 - y14_54 - y3_63 - y26_28 - y55_64 - y7_24 - y59_62 - y26_37 - y7_33 - y17_65 - y7_42 - y0_3 - y8_16 - y48_52 - y21_53 - y6_64 - y40_66 - y21_62 - y44_45 - y41_58 - y25_41 - y52_58 - y2_57 - y34_37 - y3_31 - y22_44 - y15_23 - y7_19 - y26_32 - y17_51 - y9_56 - y5_67 - y29_34 - y8_11 - y0_7 - y29_61 - y10_20 - y33_40 - y33_49 - y3_8 - y22_30 - y2_61 - y3_26 - y13_58 - y3_35 - y35_67 - y3_44 - y7_14 - y28_46 - y7_23 - y5_62 - y6_27 - y9_60 - y0_2 - y6_36 - y21_43 - y29_56 - y40_56 - y21_52 - y2_29 - y43_48 - y51_61 - y32_57 - y43_57 - y13_53 - y14_30 - y43_66 - y13_62 - y24_62 - y35_62 - y28_32 - y7_9 - y17_41 - y36_54 - y9_37 - y9_46 - y5_57 - y58_60 - y5_66 - y21_29 - y6_40 - y21_47 - y2_6 - y39_55 - y31_60 - y23_65 - y3_7 - y32_43 - y51_56 - y35_39 - y43_52 - y13_48 - y16_44 - y1_55 - y16_53 - y35_66 - y16_62 - y17_27 - y36_40 - y17_36 - y28_36 - y36_49 - y9_32 - y47_49 - y6_8 - y5_52 - y28_54 - y6_26 - y9_59 - y21_24 - y21_33 - y6_44 - y31_46 - y10_23 - y12_60 - y4_56 - y51_60 - y1_41 - y13_43 - y13_52 - y16_48 - y24_61 - y5_20 - y57_67 - y17_40 - y28_49 - y6_12 - y9_45 - y50_55 - y61_64 - y6_39 - y30_67 - y0_63 - y20_41 - y31_41 - y23_46 - y31_59 - y54_61 - y23_64 - y24_29 - y1_36 - y1_45 - y16_43 - y24_56 - y1_63 - y16_61 - y46_62 - y9_22 - y5_51 - y6_25 - y21_23 - y27_57 - y30_53 - y42_55 - y20_27 - y11_58 - y10_13 - y11_67 - y23_32 - y2_9 - y31_45 - y12_41 - y4_37 - y20_63 - y23_59 - y32_37 - y1_31 - y13_33 - y43_46 - y1_40 - y24_42 - y1_58 - y17_21 - y9_17 - y46_66 - y57_66 - y49_62 - y9_35 - y18_65 - y27_43 - y30_39 - y50_54 - y19_48 - y61_63 - y19_57 - y20_22 - y42_59 - y19_66 - y30_66 - y12_27 - y2_4 - y20_40 - y39_53 - y20_49 - y4_32 - y31_49 - y13_28 - y53_64 - y4_59 - y22_67 - y1_44 - y5_14 - y15_46 - y5_23 - y26_55 - y18_51 - y15_64 - y18_60 - y30_34 - y27_47 - y0_30 - y42_45 - y27_56 - y0_39 - y11_39 - y42_54 - y19_61 - y23_31 - y52_67 - y4_27 - y12_49 - y13_14 - y45_46 - y1_21 - y53_59 - y16_19 - y34_55 - y1_30 - y45_55 - y1_39 - y14_67 - y5_9 - y15_50 - y49_52 - y57_65 - y7_46 - y18_46 - y15_59 - y8_20 - y19_20 - y27_33 - y7_64 - y0_25 - y8_38 - y19_38 - y27_51 - y11_34 - y42_49 - y11_43 - y30_56 - y11_52 - y41_53 - y52_53 - y60_66 - y0_61 - y23_26 - y52_62 - y31_39 - y33_58 - y1_7 - y4_40 - y34_41 - y53_54 - y22_48 - y37_46 - y16_23 - y3_53 - y14_53 - y22_66 - y5_13 - y7_32 - y46_51 - y26_45 - y7_41 - y18_41 - y26_54 - y38_56 - y27_37 - y0_20 - y19_33 - y27_46 - y40_65 - y41_57 - y12_30 - y23_30 - y44_62 - y1_2 - y25_58 - y1_11 - y2_65 - y1_20 - y3_39 - y34_54 - y45_54 - y3_48 - y45_63 - y56_63 - y15_22 - y3_66 - y15_31 - y7_27 - y37_49 - y26_40 - y7_36 - y18_36 - y26_58 - y7_54 - y27_32 - y0_15 - y18_63 - y8_28 - y0_24 - y21_56 - y6_67 - y41_52 - y4_12 - y44_48 - y52_61 - y33_57 - y2_51 - y44_66 - y25_62 - y34_40 - y45_49 - y14_43 - y37_45 - y22_56 - y37_54 - y7_13 - y15_35 - y7_31 - y36_67 - y47_67 - y17_63 - y0_1 - y7_49 - y48_50 - y0_10 - y29_46 - y19_23 - y48_59 - y6_53 - y40_55 - y11_28 - y63_66 - y21_60 - y4_7 - y41_56 - y52_56 - y10_50 - y41_65 - y25_57 - y2_64 - y22_42 - y34_44 - y3_38 - y22_51 - y3_47 - y3_56
 Subject to
C1: x0+x1-y0_1 <=1 
C2: x0+x2-y0_2 <=1 
C3: x0+x3-y0_3 <=1 
C4: x0+x5-y0_5 <=1 
C5: x0+x7-y0_7 <=1 
C6: x0+x9-y0_9 <=1 
C7: x0+x10-y0_10 <=1 
C8: x0+x11 <=1 
C9: x0+x12 <=1 
C10: x0+x13 <=1 
C11: x0+x14 <=1 
C12: x0+x15-y0_15 <=1 
C13: x0+x17 <=1 
C14: x0+x18 <=1 
C15: x0+x19 <=1 
C16: x0+x20-y0_20 <=1 
C17: x0+x21 <=1 
C18: x0+x23-y0_23 <=1 
C19: x0+x24-y0_24 <=1 
C20: x0+x25-y0_25 <=1 
C21: x0+x27 <=1 
C22: x0+x28 <=1 
C23: x0+x29 <=1 
C24: x0+x30-y0_30 <=1 
C25: x0+x33 <=1 
C26: x0+x36-y0_36 <=1 
C27: x0+x37 <=1 
C28: x0+x39-y0_39 <=1 
C29: x0+x40-y0_40 <=1 
C30: x0+x42 <=1 
C31: x0+x46-y0_46 <=1 
C32: x0+x49 <=1 
C33: x0+x50-y0_50 <=1 
C34: x0+x51 <=1 
C35: x0+x53 <=1 
C36: x0+x55 <=1 
C37: x0+x59 <=1 
C38: x0+x61-y0_61 <=1 
C39: x0+x63-y0_63 <=1 
C40: x0+x65-y0_65 <=1 
C41: x0+x66 <=1 
C42: x1+x2-y1_2 <=1 
C43: x1+x3 <=1 
C44: x1+x5-y1_5 <=1 
C45: x1+x7-y1_7 <=1 
C46: x1+x8 <=1 
C47: x1+x9 <=1 
C48: x1+x10 <=1 
C49: x1+x11-y1_11 <=1 
C50: x1+x14 <=1 
C51: x1+x15 <=1 
C52: x1+x16 <=1 
C53: x1+x18-y1_18 <=1 
C54: x1+x20-y1_20 <=1 
C55: x1+x21-y1_21 <=1 
C56: x1+x22 <=1 
C57: x1+x23-y1_23 <=1 
C58: x1+x24 <=1 
C59: x1+x29-y1_29 <=1 
C60: x1+x30-y1_30 <=1 
C61: x1+x31-y1_31 <=1 
C62: x1+x33-y1_33 <=1 
C63: x1+x34-y1_34 <=1 
C64: x1+x35 <=1 
C65: x1+x36-y1_36 <=1 
C66: x1+x38 <=1 
C67: x1+x39-y1_39 <=1 
C68: x1+x40-y1_40 <=1 
C69: x1+x41-y1_41 <=1 
C70: x1+x42 <=1 
C71: x1+x43-y1_43 <=1 
C72: x1+x44-y1_44 <=1 
C73: x1+x45-y1_45 <=1 
C74: x1+x47 <=1 
C75: x1+x49 <=1 
C76: x1+x50 <=1 
C77: x1+x51 <=1 
C78: x1+x54 <=1 
C79: x1+x55-y1_55 <=1 
C80: x1+x56 <=1 
C81: x1+x57-y1_57 <=1 
C82: x1+x58-y1_58 <=1 
C83: x1+x59 <=1 
C84: x1+x61-y1_61 <=1 
C85: x1+x62 <=1 
C86: x1+x63-y1_63 <=1 
C87: x1+x66 <=1 
C88: x1+x67-y1_67 <=1 
C89: x2+x3 <=1 
C90: x2+x4-y2_4 <=1 
C91: x2+x6-y2_6 <=1 
C92: x2+x7-y2_7 <=1 
C93: x2+x8 <=1 
C94: x2+x9-y2_9 <=1 
C95: x2+x16 <=1 
C96: x2+x17 <=1 
C97: x2+x21 <=1 
C98: x2+x22-y2_22 <=1 
C99: x2+x24 <=1 
C100: x2+x26-y2_26 <=1 
C101: x2+x27 <=1 
C102: x2+x29-y2_29 <=1 
C103: x2+x31 <=1 
C104: x2+x32 <=1 
C105: x2+x33 <=1 
C106: x2+x34 <=1 
C107: x2+x35 <=1 
C108: x2+x39 <=1 
C109: x2+x43 <=1 
C110: x2+x44-y2_44 <=1 
C111: x2+x45 <=1 
C112: x2+x46 <=1 
C113: x2+x47 <=1 
C114: x2+x48 <=1 
C115: x2+x50 <=1 
C116: x2+x51-y2_51 <=1 
C117: x2+x57-y2_57 <=1 
C118: x2+x60 <=1 
C119: x2+x61-y2_61 <=1 
C120: x2+x62 <=1 
C121: x2+x64-y2_64 <=1 
C122: x2+x65-y2_65 <=1 
C123: x2+x66 <=1 
C124: x3+x5 <=1 
C125: x3+x7-y3_7 <=1 
C126: x3+x8-y3_8 <=1 
C127: x3+x9 <=1 
C128: x3+x10 <=1 
C129: x3+x11 <=1 
C130: x3+x12 <=1 
C131: x3+x13 <=1 
C132: x3+x15-y3_15 <=1 
C133: x3+x16 <=1 
C134: x3+x17 <=1 
C135: x3+x18-y3_18 <=1 
C136: x3+x19 <=1 
C137: x3+x22 <=1 
C138: x3+x24 <=1 
C139: x3+x26-y3_26 <=1 
C140: x3+x28 <=1 
C141: x3+x31-y3_31 <=1 
C142: x3+x33 <=1 
C143: x3+x34 <=1 
C144: x3+x35-y3_35 <=1 
C145: x3+x36 <=1 
C146: x3+x37 <=1 
C147: x3+x38-y3_38 <=1 
C148: x3+x39-y3_39 <=1 
C149: x3+x40 <=1 
C150: x3+x41-y3_41 <=1 
C151: x3+x43 <=1 
C152: x3+x44-y3_44 <=1 
C153: x3+x45 <=1 
C154: x3+x47-y3_47 <=1 
C155: x3+x48-y3_48 <=1 
C156: x3+x49 <=1 
C157: x3+x50 <=1 
C158: x3+x51 <=1 
C159: x3+x53-y3_53 <=1 
C160: x3+x56-y3_56 <=1 
C161: x3+x58 <=1 
C162: x3+x59-y3_59 <=1 
C163: x3+x60 <=1 
C164: x3+x61 <=1 
C165: x3+x62 <=1 
C166: x3+x63-y3_63 <=1 
C167: x3+x66-y3_66 <=1 
C168: x3+x67 <=1 
C169: x4+x7-y4_7 <=1 
C170: x4+x8 <=1 
C171: x4+x10-y4_10 <=1 
C172: x4+x11 <=1 
C173: x4+x12-y4_12 <=1 
C174: x4+x13 <=1 
C175: x4+x19 <=1 
C176: x4+x20-y4_20 <=1 
C177: x4+x21 <=1 
C178: x4+x22 <=1 
C179: x4+x25 <=1 
C180: x4+x27-y4_27 <=1 
C181: x4+x29 <=1 
C182: x4+x32-y4_32 <=1 
C183: x4+x34 <=1 
C184: x4+x35 <=1 
C185: x4+x37-y4_37 <=1 
C186: x4+x40-y4_40 <=1 
C187: x4+x41 <=1 
C188: x4+x43 <=1 
C189: x4+x44-y4_44 <=1 
C190: x4+x45 <=1 
C191: x4+x47 <=1 
C192: x4+x48-y4_48 <=1 
C193: x4+x52 <=1 
C194: x4+x55 <=1 
C195: x4+x56-y4_56 <=1 
C196: x4+x57-y4_57 <=1 
C197: x4+x59-y4_59 <=1 
C198: x4+x61 <=1 
C199: x4+x62 <=1 
C200: x4+x64 <=1 
C201: x4+x66 <=1 
C202: x5+x6 <=1 
C203: x5+x7 <=1 
C204: x5+x8 <=1 
C205: x5+x9-y5_9 <=1 
C206: x5+x12 <=1 
C207: x5+x13-y5_13 <=1 
C208: x5+x14-y5_14 <=1 
C209: x5+x16 <=1 
C210: x5+x17-y5_17 <=1 
C211: x5+x20-y5_20 <=1 
C212: x5+x23-y5_23 <=1 
C213: x5+x24 <=1 
C214: x5+x31 <=1 
C215: x5+x32 <=1 
C216: x5+x35-y5_35 <=1 
C217: x5+x36 <=1 
C218: x5+x37 <=1 
C219: x5+x38 <=1 
C220: x5+x39 <=1 
C221: x5+x40 <=1 
C222: x5+x41-y5_41 <=1 
C223: x5+x42 <=1 
C224: x5+x45-y5_45 <=1 
C225: x5+x47 <=1 
C226: x5+x48 <=1 
C227: x5+x49 <=1 
C228: x5+x50-y5_50 <=1 
C229: x5+x51-y5_51 <=1 
C230: x5+x52-y5_52 <=1 
C231: x5+x53 <=1 
C232: x5+x55-y5_55 <=1 
C233: x5+x56 <=1 
C234: x5+x57-y5_57 <=1 
C235: x5+x58 <=1 
C236: x5+x59-y5_59 <=1 
C237: x5+x61 <=1 
C238: x5+x62-y5_62 <=1 
C239: x5+x63 <=1 
C240: x5+x64-y5_64 <=1 
C241: x5+x66-y5_66 <=1 
C242: x5+x67-y5_67 <=1 
C243: x6+x7 <=1 
C244: x6+x8-y6_8 <=1 
C245: x6+x9-y6_9 <=1 
C246: x6+x12-y6_12 <=1 
C247: x6+x13-y6_13 <=1 
C248: x6+x14 <=1 
C249: x6+x15-y6_15 <=1 
C250: x6+x16 <=1 
C251: x6+x19 <=1 
C252: x6+x23 <=1 
C253: x6+x24 <=1 
C254: x6+x25-y6_25 <=1 
C255: x6+x26-y6_26 <=1 
C256: x6+x27-y6_27 <=1 
C257: x6+x33-y6_33 <=1 
C258: x6+x34-y6_34 <=1 
C259: x6+x36-y6_36 <=1 
C260: x6+x38-y6_38 <=1 
C261: x6+x39-y6_39 <=1 
C262: x6+x40-y6_40 <=1 
C263: x6+x41 <=1 
C264: x6+x42-y6_42 <=1 
C265: x6+x44-y6_44 <=1 
C266: x6+x45 <=1 
C267: x6+x49 <=1 
C268: x6+x50 <=1 
C269: x6+x52-y6_52 <=1 
C270: x6+x53-y6_53 <=1 
C271: x6+x54 <=1 
C272: x6+x58 <=1 
C273: x6+x60-y6_60 <=1 
C274: x6+x61 <=1 
C275: x6+x63 <=1 
C276: x6+x64-y6_64 <=1 
C277: x6+x66-y6_66 <=1 
C278: x6+x67-y6_67 <=1 
C279: x7+x9-y7_9 <=1 
C280: x7+x11-y7_11 <=1 
C281: x7+x12 <=1 
C282: x7+x13-y7_13 <=1 
C283: x7+x14-y7_14 <=1 
C284: x7+x15 <=1 
C285: x7+x16 <=1 
C286: x7+x17-y7_17 <=1 
C287: x7+x18 <=1 
C288: x7+x19-y7_19 <=1 
C289: x7+x23-y7_23 <=1 
C290: x7+x24-y7_24 <=1 
C291: x7+x27-y7_27 <=1 
C292: x7+x28 <=1 
C293: x7+x29-y7_29 <=1 
C294: x7+x31-y7_31 <=1 
C295: x7+x32-y7_32 <=1 
C296: x7+x33-y7_33 <=1 
C297: x7+x35-y7_35 <=1 
C298: x7+x36-y7_36 <=1 
C299: x7+x37 <=1 
C300: x7+x38-y7_38 <=1 
C301: x7+x39 <=1 
C302: x7+x41-y7_41 <=1 
C303: x7+x42-y7_42 <=1 
C304: x7+x43-y7_43 <=1 
C305: x7+x44-y7_44 <=1 
C306: x7+x46-y7_46 <=1 
C307: x7+x49-y7_49 <=1 
C308: x7+x52 <=1 
C309: x7+x54-y7_54 <=1 
C310: x7+x55 <=1 
C311: x7+x56-y7_56 <=1 
C312: x7+x58 <=1 
C313: x7+x59 <=1 
C314: x7+x61 <=1 
C315: x7+x63 <=1 
C316: x7+x64-y7_64 <=1 
C317: x7+x66 <=1 
C318: x7+x67 <=1 
C319: x8+x9-y8_9 <=1 
C320: x8+x10 <=1 
C321: x8+x11-y8_11 <=1 
C322: x8+x12 <=1 
C323: x8+x13-y8_13 <=1 
C324: x8+x14 <=1 
C325: x8+x15 <=1 
C326: x8+x16-y8_16 <=1 
C327: x8+x17-y8_17 <=1 
C328: x8+x18 <=1 
C329: x8+x20-y8_20 <=1 
C330: x8+x21 <=1 
C331: x8+x24 <=1 
C332: x8+x26-y8_26 <=1 
C333: x8+x27 <=1 
C334: x8+x28-y8_28 <=1 
C335: x8+x29 <=1 
C336: x8+x30-y8_30 <=1 
C337: x8+x31-y8_31 <=1 
C338: x8+x36 <=1 
C339: x8+x38-y8_38 <=1 
C340: x8+x39 <=1 
C341: x8+x40 <=1 
C342: x8+x44 <=1 
C343: x8+x45 <=1 
C344: x8+x46 <=1 
C345: x8+x47 <=1 
C346: x8+x49-y8_49 <=1 
C347: x8+x51-y8_51 <=1 
C348: x8+x53 <=1 
C349: x8+x54-y8_54 <=1 
C350: x8+x59 <=1 
C351: x8+x60 <=1 
C352: x8+x62 <=1 
C353: x8+x63 <=1 
C354: x8+x64-y8_64 <=1 
C355: x9+x13 <=1 
C356: x9+x15 <=1 
C357: x9+x17-y9_17 <=1 
C358: x9+x19 <=1 
C359: x9+x22-y9_22 <=1 
C360: x9+x23 <=1 
C361: x9+x24-y9_24 <=1 
C362: x9+x26 <=1 
C363: x9+x27 <=1 
C364: x9+x28 <=1 
C365: x9+x30-y9_30 <=1 
C366: x9+x31 <=1 
C367: x9+x32-y9_32 <=1 
C368: x9+x34 <=1 
C369: x9+x35-y9_35 <=1 
C370: x9+x36 <=1 
C371: x9+x37-y9_37 <=1 
C372: x9+x39 <=1 
C373: x9+x40 <=1 
C374: x9+x44-y9_44 <=1 
C375: x9+x45-y9_45 <=1 
C376: x9+x46-y9_46 <=1 
C377: x9+x47 <=1 
C378: x9+x49 <=1 
C379: x9+x50 <=1 
C380: x9+x52 <=1 
C381: x9+x53 <=1 
C382: x9+x55 <=1 
C383: x9+x56-y9_56 <=1 
C384: x9+x57-y9_57 <=1 
C385: x9+x59-y9_59 <=1 
C386: x9+x60-y9_60 <=1 
C387: x9+x61-y9_61 <=1 
C388: x9+x64 <=1 
C389: x9+x65 <=1 
C390: x10+x12-y10_12 <=1 
C391: x10+x13-y10_13 <=1 
C392: x10+x15 <=1 
C393: x10+x16-y10_16 <=1 
C394: x10+x17 <=1 
C395: x10+x20-y10_20 <=1 
C396: x10+x21 <=1 
C397: x10+x23-y10_23 <=1 
C398: x10+x25-y10_25 <=1 
C399: x10+x26 <=1 
C400: x10+x27-y10_27 <=1 
C401: x10+x28 <=1 
C402: x10+x32 <=1 
C403: x10+x33 <=1 
C404: x10+x34 <=1 
C405: x10+x36-y10_36 <=1 
C406: x10+x38 <=1 
C407: x10+x39-y10_39 <=1 
C408: x10+x42 <=1 
C409: x10+x45-y10_45 <=1 
C410: x10+x50-y10_50 <=1 
C411: x10+x51 <=1 
C412: x10+x56 <=1 
C413: x10+x57 <=1 
C414: x10+x62 <=1 
C415: x10+x63 <=1 
C416: x10+x65 <=1 
C417: x10+x66-y10_66 <=1 
C418: x10+x67 <=1 
C419: x11+x12 <=1 
C420: x11+x13 <=1 
C421: x11+x15 <=1 
C422: x11+x16 <=1 
C423: x11+x17-y11_17 <=1 
C424: x11+x22 <=1 
C425: x11+x24 <=1 
C426: x11+x25 <=1 
C427: x11+x26-y11_26 <=1 
C428: x11+x28-y11_28 <=1 
C429: x11+x31-y11_31 <=1 
C430: x11+x32-y11_32 <=1 
C431: x11+x34-y11_34 <=1 
C432: x11+x35 <=1 
C433: x11+x36-y11_36 <=1 
C434: x11+x38 <=1 
C435: x11+x39-y11_39 <=1 
C436: x11+x40 <=1 
C437: x11+x43-y11_43 <=1 
C438: x11+x46-y11_46 <=1 
C439: x11+x49 <=1 
C440: x11+x50-y11_50 <=1 
C441: x11+x51-y11_51 <=1 
C442: x11+x52-y11_52 <=1 
C443: x11+x53 <=1 
C444: x11+x55-y11_55 <=1 
C445: x11+x57 <=1 
C446: x11+x58-y11_58 <=1 
C447: x11+x59 <=1 
C448: x11+x60-y11_60 <=1 
C449: x11+x62 <=1 
C450: x11+x63 <=1 
C451: x11+x64-y11_64 <=1 
C452: x11+x65 <=1 
C453: x11+x66 <=1 
C454: x11+x67-y11_67 <=1 
C455: x12+x13 <=1 
C456: x12+x14-y12_14 <=1 
C457: x12+x15-y12_15 <=1 
C458: x12+x16 <=1 
C459: x12+x19 <=1 
C460: x12+x21 <=1 
C461: x12+x23 <=1 
C462: x12+x24-y12_24 <=1 
C463: x12+x25-y12_25 <=1 
C464: x12+x26 <=1 
C465: x12+x27-y12_27 <=1 
C466: x12+x28-y12_28 <=1 
C467: x12+x30-y12_30 <=1 
C468: x12+x31 <=1 
C469: x12+x35 <=1 
C470: x12+x36 <=1 
C471: x12+x38 <=1 
C472: x12+x39-y12_39 <=1 
C473: x12+x41-y12_41 <=1 
C474: x12+x42 <=1 
C475: x12+x43-y12_43 <=1 
C476: x12+x44 <=1 
C477: x12+x45 <=1 
C478: x12+x46 <=1 
C479: x12+x47 <=1 
C480: x12+x48-y12_48 <=1 
C481: x12+x49-y12_49 <=1 
C482: x12+x53 <=1 
C483: x12+x54 <=1 
C484: x12+x58 <=1 
C485: x12+x59 <=1 
C486: x12+x60-y12_60 <=1 
C487: x12+x63 <=1 
C488: x12+x65 <=1 
C489: x12+x67 <=1 
C490: x13+x14-y13_14 <=1 
C491: x13+x15 <=1 
C492: x13+x16-y13_16 <=1 
C493: x13+x17 <=1 
C494: x13+x20 <=1 
C495: x13+x21 <=1 
C496: x13+x24 <=1 
C497: x13+x28-y13_28 <=1 
C498: x13+x29 <=1 
C499: x13+x30 <=1 
C500: x13+x31 <=1 
C501: x13+x32-y13_32 <=1 
C502: x13+x33-y13_33 <=1 
C503: x13+x37 <=1 
C504: x13+x40 <=1 
C505: x13+x42 <=1 
C506: x13+x43-y13_43 <=1 
C507: x13+x45 <=1 
C508: x13+x47 <=1 
C509: x13+x48-y13_48 <=1 
C510: x13+x51 <=1 
C511: x13+x52-y13_52 <=1 
C512: x13+x53-y13_53 <=1 
C513: x13+x55-y13_55 <=1 
C514: x13+x56 <=1 
C515: x13+x57 <=1 
C516: x13+x58-y13_58 <=1 
C517: x13+x59 <=1 
C518: x13+x61 <=1 
C519: x13+x62-y13_62 <=1 
C520: x13+x63-y13_63 <=1 
C521: x13+x64 <=1 
C522: x13+x65 <=1 
C523: x13+x67 <=1 
C524: x14+x15 <=1 
C525: x14+x18 <=1 
C526: x14+x19 <=1 
C527: x14+x20 <=1 
C528: x14+x24 <=1 
C529: x14+x25 <=1 
C530: x14+x27-y14_27 <=1 
C531: x14+x28-y14_28 <=1 
C532: x14+x30-y14_30 <=1 
C533: x14+x31 <=1 
C534: x14+x32 <=1 
C535: x14+x35 <=1 
C536: x14+x36-y14_36 <=1 
C537: x14+x37-y14_37 <=1 
C538: x14+x38 <=1 
C539: x14+x40 <=1 
C540: x14+x41 <=1 
C541: x14+x43-y14_43 <=1 
C542: x14+x47 <=1 
C543: x14+x50-y14_50 <=1 
C544: x14+x51 <=1 
C545: x14+x53-y14_53 <=1 
C546: x14+x54-y14_54 <=1 
C547: x14+x55 <=1 
C548: x14+x57 <=1 
C549: x14+x59-y14_59 <=1 
C550: x14+x60-y14_60 <=1 
C551: x14+x61 <=1 
C552: x14+x63 <=1 
C553: x14+x64-y14_64 <=1 
C554: x14+x66 <=1 
C555: x14+x67-y14_67 <=1 
C556: x15+x20-y15_20 <=1 
C557: x15+x21 <=1 
C558: x15+x22-y15_22 <=1 
C559: x15+x23-y15_23 <=1 
C560: x15+x25 <=1 
C561: x15+x28 <=1 
C562: x15+x30 <=1 
C563: x15+x31-y15_31 <=1 
C564: x15+x34 <=1 
C565: x15+x35-y15_35 <=1 
C566: x15+x38 <=1 
C567: x15+x39-y15_39 <=1 
C568: x15+x40 <=1 
C569: x15+x41 <=1 
C570: x15+x42 <=1 
C571: x15+x43-y15_43 <=1 
C572: x15+x45 <=1 
C573: x15+x46-y15_46 <=1 
C574: x15+x47-y15_47 <=1 
C575: x15+x48-y15_48 <=1 
C576: x15+x50-y15_50 <=1 
C577: x15+x51 <=1 
C578: x15+x52 <=1 
C579: x15+x53 <=1 
C580: x15+x56-y15_56 <=1 
C581: x15+x59-y15_59 <=1 
C582: x15+x64-y15_64 <=1 
C583: x15+x65 <=1 
C584: x15+x67 <=1 
C585: x16+x17 <=1 
C586: x16+x18-y16_18 <=1 
C587: x16+x19-y16_19 <=1 
C588: x16+x23-y16_23 <=1 
C589: x16+x24 <=1 
C590: x16+x25 <=1 
C591: x16+x29 <=1 
C592: x16+x30-y16_30 <=1 
C593: x16+x32 <=1 
C594: x16+x35-y16_35 <=1 
C595: x16+x36 <=1 
C596: x16+x37 <=1 
C597: x16+x41-y16_41 <=1 
C598: x16+x43-y16_43 <=1 
C599: x16+x44-y16_44 <=1 
C600: x16+x45-y16_45 <=1 
C601: x16+x46 <=1 
C602: x16+x47 <=1 
C603: x16+x48-y16_48 <=1 
C604: x16+x49 <=1 
C605: x16+x50-y16_50 <=1 
C606: x16+x53-y16_53 <=1 
C607: x16+x55-y16_55 <=1 
C608: x16+x58 <=1 
C609: x16+x61-y16_61 <=1 
C610: x16+x62-y16_62 <=1 
C611: x16+x65 <=1 
C612: x16+x66 <=1 
C613: x16+x67 <=1 
C614: x17+x18 <=1 
C615: x17+x19-y17_19 <=1 
C616: x17+x20 <=1 
C617: x17+x21-y17_21 <=1 
C618: x17+x22 <=1 
C619: x17+x23 <=1 
C620: x17+x25-y17_25 <=1 
C621: x17+x27-y17_27 <=1 
C622: x17+x28-y17_28 <=1 
C623: x17+x29-y17_29 <=1 
C624: x17+x31 <=1 
C625: x17+x32 <=1 
C626: x17+x33-y17_33 <=1 
C627: x17+x34-y17_34 <=1 
C628: x17+x36-y17_36 <=1 
C629: x17+x38-y17_38 <=1 
C630: x17+x39-y17_39 <=1 
C631: x17+x40-y17_40 <=1 
C632: x17+x41-y17_41 <=1 
C633: x17+x42-y17_42 <=1 
C634: x17+x45 <=1 
C635: x17+x47 <=1 
C636: x17+x48-y17_48 <=1 
C637: x17+x49 <=1 
C638: x17+x50 <=1 
C639: x17+x51-y17_51 <=1 
C640: x17+x55 <=1 
C641: x17+x59 <=1 
C642: x17+x60 <=1 
C643: x17+x62-y17_62 <=1 
C644: x17+x63-y17_63 <=1 
C645: x17+x65-y17_65 <=1 
C646: x17+x67-y17_67 <=1 
C647: x18+x19 <=1 
C648: x18+x21 <=1 
C649: x18+x22 <=1 
C650: x18+x24 <=1 
C651: x18+x25 <=1 
C652: x18+x26-y18_26 <=1 
C653: x18+x29 <=1 
C654: x18+x30-y18_30 <=1 
C655: x18+x32 <=1 
C656: x18+x34 <=1 
C657: x18+x35 <=1 
C658: x18+x36-y18_36 <=1 
C659: x18+x38-y18_38 <=1 
C660: x18+x41-y18_41 <=1 
C661: x18+x42 <=1 
C662: x18+x43 <=1 
C663: x18+x44 <=1 
C664: x18+x46-y18_46 <=1 
C665: x18+x47-y18_47 <=1 
C666: x18+x48 <=1 
C667: x18+x50 <=1 
C668: x18+x51-y18_51 <=1 
C669: x18+x52 <=1 
C670: x18+x53-y18_53 <=1 
C671: x18+x57-y18_57 <=1 
C672: x18+x59 <=1 
C673: x18+x60-y18_60 <=1 
C674: x18+x62-y18_62 <=1 
C675: x18+x63-y18_63 <=1 
C676: x18+x65-y18_65 <=1 
C677: x18+x67-y18_67 <=1 
C678: x19+x20-y19_20 <=1 
C679: x19+x23-y19_23 <=1 
C680: x19+x26-y19_26 <=1 
C681: x19+x27-y19_27 <=1 
C682: x19+x30-y19_30 <=1 
C683: x19+x31-y19_31 <=1 
C684: x19+x33-y19_33 <=1 
C685: x19+x35 <=1 
C686: x19+x36-y19_36 <=1 
C687: x19+x37 <=1 
C688: x19+x38-y19_38 <=1 
C689: x19+x43 <=1 
C690: x19+x46 <=1 
C691: x19+x48-y19_48 <=1 
C692: x19+x49 <=1 
C693: x19+x51 <=1 
C694: x19+x52 <=1 
C695: x19+x54 <=1 
C696: x19+x55-y19_55 <=1 
C697: x19+x57-y19_57 <=1 
C698: x19+x58 <=1 
C699: x19+x60 <=1 
C700: x19+x61-y19_61 <=1 
C701: x19+x66-y19_66 <=1 
C702: x20+x22-y20_22 <=1 
C703: x20+x24-y20_24 <=1 
C704: x20+x27-y20_27 <=1 
C705: x20+x28-y20_28 <=1 
C706: x20+x29 <=1 
C707: x20+x33-y20_33 <=1 
C708: x20+x34-y20_34 <=1 
C709: x20+x36 <=1 
C710: x20+x38-y20_38 <=1 
C711: x20+x39 <=1 
C712: x20+x40-y20_40 <=1 
C713: x20+x41-y20_41 <=1 
C714: x20+x42 <=1 
C715: x20+x43 <=1 
C716: x20+x45 <=1 
C717: x20+x47-y20_47 <=1 
C718: x20+x49-y20_49 <=1 
C719: x20+x51 <=1 
C720: x20+x52-y20_52 <=1 
C721: x20+x53-y20_53 <=1 
C722: x20+x55 <=1 
C723: x20+x56 <=1 
C724: x20+x61 <=1 
C725: x20+x63-y20_63 <=1 
C726: x20+x65 <=1 
C727: x21+x22 <=1 
C728: x21+x23-y21_23 <=1 
C729: x21+x24-y21_24 <=1 
C730: x21+x26 <=1 
C731: x21+x27 <=1 
C732: x21+x29-y21_29 <=1 
C733: x21+x30-y21_30 <=1 
C734: x21+x31 <=1 
C735: x21+x33-y21_33 <=1 
C736: x21+x35-y21_35 <=1 
C737: x21+x42 <=1 
C738: x21+x43-y21_43 <=1 
C739: x21+x44 <=1 
C740: x21+x46 <=1 
C741: x21+x47-y21_47 <=1 
C742: x21+x48 <=1 
C743: x21+x49 <=1 
C744: x21+x50 <=1 
C745: x21+x52-y21_52 <=1 
C746: x21+x53-y21_53 <=1 
C747: x21+x56-y21_56 <=1 
C748: x21+x59 <=1 
C749: x21+x60-y21_60 <=1 
C750: x21+x61 <=1 
C751: x21+x62-y21_62 <=1 
C752: x21+x64-y21_64 <=1 
C753: x21+x65 <=1 
C754: x22+x23 <=1 
C755: x22+x26 <=1 
C756: x22+x27-y22_27 <=1 
C757: x22+x28-y22_28 <=1 
C758: x22+x30-y22_30 <=1 
C759: x22+x31 <=1 
C760: x22+x34 <=1 
C761: x22+x36 <=1 
C762: x22+x37 <=1 
C763: x22+x41 <=1 
C764: x22+x42-y22_42 <=1 
C765: x22+x43 <=1 
C766: x22+x44-y22_44 <=1 
C767: x22+x45 <=1 
C768: x22+x46 <=1 
C769: x22+x48-y22_48 <=1 
C770: x22+x49 <=1 
C771: x22+x51-y22_51 <=1 
C772: x22+x52 <=1 
C773: x22+x53 <=1 
C774: x22+x54-y22_54 <=1 
C775: x22+x56-y22_56 <=1 
C776: x22+x58-y22_58 <=1 
C777: x22+x60-y22_60 <=1 
C778: x22+x61 <=1 
C779: x22+x62 <=1 
C780: x22+x65 <=1 
C781: x22+x66-y22_66 <=1 
C782: x22+x67-y22_67 <=1 
C783: x23+x24-y23_24 <=1 
C784: x23+x25 <=1 
C785: x23+x26-y23_26 <=1 
C786: x23+x27 <=1 
C787: x23+x28-y23_28 <=1 
C788: x23+x29 <=1 
C789: x23+x30-y23_30 <=1 
C790: x23+x31-y23_31 <=1 
C791: x23+x32-y23_32 <=1 
C792: x23+x34-y23_34 <=1 
C793: x23+x35 <=1 
C794: x23+x39 <=1 
C795: x23+x40 <=1 
C796: x23+x42-y23_42 <=1 
C797: x23+x46-y23_46 <=1 
C798: x23+x47-y23_47 <=1 
C799: x23+x49 <=1 
C800: x23+x52-y23_52 <=1 
C801: x23+x55 <=1 
C802: x23+x56 <=1 
C803: x23+x57 <=1 
C804: x23+x58 <=1 
C805: x23+x59-y23_59 <=1 
C806: x23+x60 <=1 
C807: x23+x61 <=1 
C808: x23+x63 <=1 
C809: x23+x64-y23_64 <=1 
C810: x23+x65-y23_65 <=1 
C811: x23+x66 <=1 
C812: x24+x27-y24_27 <=1 
C813: x24+x29-y24_29 <=1 
C814: x24+x30 <=1 
C815: x24+x31 <=1 
C816: x24+x32-y24_32 <=1 
C817: x24+x33 <=1 
C818: x24+x34 <=1 
C819: x24+x35 <=1 
C820: x24+x36-y24_36 <=1 
C821: x24+x37 <=1 
C822: x24+x42-y24_42 <=1 
C823: x24+x44 <=1 
C824: x24+x46-y24_46 <=1 
C825: x24+x47 <=1 
C826: x24+x49-y24_49 <=1 
C827: x24+x52 <=1 
C828: x24+x53 <=1 
C829: x24+x55-y24_55 <=1 
C830: x24+x56-y24_56 <=1 
C831: x24+x60 <=1 
C832: x24+x61-y24_61 <=1 
C833: x24+x62-y24_62 <=1 
C834: x24+x63 <=1 
C835: x24+x65-y24_65 <=1 
C836: x24+x66 <=1 
C837: x24+x67 <=1 
C838: x25+x26 <=1 
C839: x25+x28 <=1 
C840: x25+x31 <=1 
C841: x25+x34 <=1 
C842: x25+x35 <=1 
C843: x25+x37 <=1 
C844: x25+x38 <=1 
C845: x25+x39 <=1 
C846: x25+x41-y25_41 <=1 
C847: x25+x45 <=1 
C848: x25+x46-y25_46 <=1 
C849: x25+x49 <=1 
C850: x25+x50 <=1 
C851: x25+x56-y25_56 <=1 
C852: x25+x57-y25_57 <=1 
C853: x25+x58-y25_58 <=1 
C854: x25+x59 <=1 
C855: x25+x60-y25_60 <=1 
C856: x25+x61 <=1 
C857: x25+x62-y25_62 <=1 
C858: x25+x64-y25_64 <=1 
C859: x25+x65 <=1 
C860: x25+x66 <=1 
C861: x26+x28-y26_28 <=1 
C862: x26+x29-y26_29 <=1 
C863: x26+x30-y26_30 <=1 
C864: x26+x31 <=1 
C865: x26+x32-y26_32 <=1 
C866: x26+x33-y26_33 <=1 
C867: x26+x34-y26_34 <=1 
C868: x26+x37-y26_37 <=1 
C869: x26+x38 <=1 
C870: x26+x40-y26_40 <=1 
C871: x26+x42 <=1 
C872: x26+x44 <=1 
C873: x26+x45-y26_45 <=1 
C874: x26+x47-y26_47 <=1 
C875: x26+x48 <=1 
C876: x26+x49 <=1 
C877: x26+x51 <=1 
C878: x26+x52 <=1 
C879: x26+x53-y26_53 <=1 
C880: x26+x54-y26_54 <=1 
C881: x26+x55-y26_55 <=1 
C882: x26+x56 <=1 
C883: x26+x57 <=1 
C884: x26+x58-y26_58 <=1 
C885: x26+x59 <=1 
C886: x26+x62 <=1 
C887: x26+x63 <=1 
C888: x26+x64 <=1 
C889: x26+x65-y26_65 <=1 
C890: x26+x66 <=1 
C891: x27+x28 <=1 
C892: x27+x31 <=1 
C893: x27+x32-y27_32 <=1 
C894: x27+x33-y27_33 <=1 
C895: x27+x36-y27_36 <=1 
C896: x27+x37-y27_37 <=1 
C897: x27+x38 <=1 
C898: x27+x39-y27_39 <=1 
C899: x27+x40-y27_40 <=1 
C900: x27+x41-y27_41 <=1 
C901: x27+x43-y27_43 <=1 
C902: x27+x45 <=1 
C903: x27+x46-y27_46 <=1 
C904: x27+x47-y27_47 <=1 
C905: x27+x49-y27_49 <=1 
C906: x27+x51-y27_51 <=1 
C907: x27+x53 <=1 
C908: x27+x55-y27_55 <=1 
C909: x27+x56-y27_56 <=1 
C910: x27+x57-y27_57 <=1 
C911: x27+x58-y27_58 <=1 
C912: x27+x59 <=1 
C913: x27+x63 <=1 
C914: x27+x64 <=1 
C915: x27+x65 <=1 
C916: x27+x67 <=1 
C917: x28+x29 <=1 
C918: x28+x32-y28_32 <=1 
C919: x28+x34-y28_34 <=1 
C920: x28+x36-y28_36 <=1 
C921: x28+x37 <=1 
C922: x28+x38 <=1 
C923: x28+x39-y28_39 <=1 
C924: x28+x40 <=1 
C925: x28+x42 <=1 
C926: x28+x43 <=1 
C927: x28+x46-y28_46 <=1 
C928: x28+x49-y28_49 <=1 
C929: x28+x50 <=1 
C930: x28+x52 <=1 
C931: x28+x54-y28_54 <=1 
C932: x28+x55 <=1 
C933: x28+x56 <=1 
C934: x28+x57-y28_57 <=1 
C935: x28+x58-y28_58 <=1 
C936: x28+x59 <=1 
C937: x28+x61 <=1 
C938: x28+x65 <=1 
C939: x28+x66-y28_66 <=1 
C940: x28+x67-y28_67 <=1 
C941: x29+x32 <=1 
C942: x29+x34-y29_34 <=1 
C943: x29+x35 <=1 
C944: x29+x36 <=1 
C945: x29+x37 <=1 
C946: x29+x40 <=1 
C947: x29+x41 <=1 
C948: x29+x44 <=1 
C949: x29+x45-y29_45 <=1 
C950: x29+x46-y29_46 <=1 
C951: x29+x48 <=1 
C952: x29+x49 <=1 
C953: x29+x50-y29_50 <=1 
C954: x29+x52 <=1 
C955: x29+x53 <=1 
C956: x29+x55 <=1 
C957: x29+x56-y29_56 <=1 
C958: x29+x57 <=1 
C959: x29+x59-y29_59 <=1 
C960: x29+x60 <=1 
C961: x29+x61-y29_61 <=1 
C962: x29+x62 <=1 
C963: x29+x64 <=1 
C964: x29+x65 <=1 
C965: x29+x67 <=1 
C966: x30+x33 <=1 
C967: x30+x34-y30_34 <=1 
C968: x30+x35 <=1 
C969: x30+x36-y30_36 <=1 
C970: x30+x37 <=1 
C971: x30+x39-y30_39 <=1 
C972: x30+x40 <=1 
C973: x30+x41-y30_41 <=1 
C974: x30+x42 <=1 
C975: x30+x45-y30_45 <=1 
C976: x30+x51 <=1 
C977: x30+x52 <=1 
C978: x30+x53-y30_53 <=1 
C979: x30+x54 <=1 
C980: x30+x56-y30_56 <=1 
C981: x30+x57 <=1 
C982: x30+x59-y30_59 <=1 
C983: x30+x60-y30_60 <=1 
C984: x30+x61 <=1 
C985: x30+x64 <=1 
C986: x30+x66-y30_66 <=1 
C987: x30+x67-y30_67 <=1 
C988: x31+x32-y31_32 <=1 
C989: x31+x34 <=1 
C990: x31+x35 <=1 
C991: x31+x38-y31_38 <=1 
C992: x31+x39-y31_39 <=1 
C993: x31+x40 <=1 
C994: x31+x41-y31_41 <=1 
C995: x31+x43 <=1 
C996: x31+x44 <=1 
C997: x31+x45-y31_45 <=1 
C998: x31+x46-y31_46 <=1 
C999: x31+x47-y31_47 <=1 
C1000: x31+x49-y31_49 <=1 
C1001: x31+x51 <=1 
C1002: x31+x53-y31_53 <=1 
C1003: x31+x59-y31_59 <=1 
C1004: x31+x60-y31_60 <=1 
C1005: x31+x61 <=1 
C1006: x31+x65 <=1 
C1007: x31+x66-y31_66 <=1 
C1008: x31+x67 <=1 
C1009: x32+x35 <=1 
C1010: x32+x36 <=1 
C1011: x32+x37-y32_37 <=1 
C1012: x32+x40 <=1 
C1013: x32+x41 <=1 
C1014: x32+x43-y32_43 <=1 
C1015: x32+x44-y32_44 <=1 
C1016: x32+x46 <=1 
C1017: x32+x47 <=1 
C1018: x32+x48 <=1 
C1019: x32+x49 <=1 
C1020: x32+x51 <=1 
C1021: x32+x52 <=1 
C1022: x32+x53 <=1 
C1023: x32+x54-y32_54 <=1 
C1024: x32+x55 <=1 
C1025: x32+x57-y32_57 <=1 
C1026: x32+x58 <=1 
C1027: x32+x59 <=1 
C1028: x32+x60 <=1 
C1029: x32+x62 <=1 
C1030: x32+x63-y32_63 <=1 
C1031: x32+x66 <=1 
C1032: x33+x34 <=1 
C1033: x33+x35 <=1 
C1034: x33+x36 <=1 
C1035: x33+x37 <=1 
C1036: x33+x38 <=1 
C1037: x33+x40-y33_40 <=1 
C1038: x33+x44 <=1 
C1039: x33+x45 <=1 
C1040: x33+x46-y33_46 <=1 
C1041: x33+x49-y33_49 <=1 
C1042: x33+x50-y33_50 <=1 
C1043: x33+x51-y33_51 <=1 
C1044: x33+x52 <=1 
C1045: x33+x57-y33_57 <=1 
C1046: x33+x58-y33_58 <=1 
C1047: x33+x59 <=1 
C1048: x33+x60-y33_60 <=1 
C1049: x33+x61 <=1 
C1050: x33+x62 <=1 
C1051: x33+x63 <=1 
C1052: x33+x65-y33_65 <=1 
C1053: x33+x66 <=1 
C1054: x33+x67 <=1 
C1055: x34+x36 <=1 
C1056: x34+x37-y34_37 <=1 
C1057: x34+x40-y34_40 <=1 
C1058: x34+x41-y34_41 <=1 
C1059: x34+x42-y34_42 <=1 
C1060: x34+x43 <=1 
C1061: x34+x44-y34_44 <=1 
C1062: x34+x46 <=1 
C1063: x34+x47 <=1 
C1064: x34+x48-y34_48 <=1 
C1065: x34+x51-y34_51 <=1 
C1066: x34+x53 <=1 
C1067: x34+x54-y34_54 <=1 
C1068: x34+x55-y34_55 <=1 
C1069: x34+x56 <=1 
C1070: x34+x57-y34_57 <=1 
C1071: x34+x59 <=1 
C1072: x34+x60 <=1 
C1073: x34+x61-y34_61 <=1 
C1074: x34+x64 <=1 
C1075: x34+x65 <=1 
C1076: x35+x39-y35_39 <=1 
C1077: x35+x41 <=1 
C1078: x35+x42 <=1 
C1079: x35+x43 <=1 
C1080: x35+x45 <=1 
C1081: x35+x48 <=1 
C1082: x35+x49 <=1 
C1083: x35+x51 <=1 
C1084: x35+x52 <=1 
C1085: x35+x55-y35_55 <=1 
C1086: x35+x57 <=1 
C1087: x35+x59-y35_59 <=1 
C1088: x35+x60-y35_60 <=1 
C1089: x35+x62-y35_62 <=1 
C1090: x35+x63-y35_63 <=1 
C1091: x35+x64 <=1 
C1092: x35+x65 <=1 
C1093: x35+x66-y35_66 <=1 
C1094: x35+x67-y35_67 <=1 
C1095: x36+x37-y36_37 <=1 
C1096: x36+x39 <=1 
C1097: x36+x40-y36_40 <=1 
C1098: x36+x42 <=1 
C1099: x36+x43-y36_43 <=1 
C1100: x36+x47-y36_47 <=1 
C1101: x36+x48 <=1 
C1102: x36+x49-y36_49 <=1 
C1103: x36+x51-y36_51 <=1 
C1104: x36+x52-y36_52 <=1 
C1105: x36+x53 <=1 
C1106: x36+x54-y36_54 <=1 
C1107: x36+x56 <=1 
C1108: x36+x57-y36_57 <=1 
C1109: x36+x63 <=1 
C1110: x36+x65-y36_65 <=1 
C1111: x36+x66-y36_66 <=1 
C1112: x36+x67-y36_67 <=1 
C1113: x37+x41 <=1 
C1114: x37+x42 <=1 
C1115: x37+x43 <=1 
C1116: x37+x45-y37_45 <=1 
C1117: x37+x46-y37_46 <=1 
C1118: x37+x47 <=1 
C1119: x37+x48-y37_48 <=1 
C1120: x37+x49-y37_49 <=1 
C1121: x37+x51 <=1 
C1122: x37+x53 <=1 
C1123: x37+x54-y37_54 <=1 
C1124: x37+x59 <=1 
C1125: x37+x60 <=1 
C1126: x37+x61 <=1 
C1127: x37+x62-y37_62 <=1 
C1128: x37+x63 <=1 
C1129: x37+x64 <=1 
C1130: x37+x66-y37_66 <=1 
C1131: x37+x67 <=1 
C1132: x38+x40 <=1 
C1133: x38+x41 <=1 
C1134: x38+x45 <=1 
C1135: x38+x46-y38_46 <=1 
C1136: x38+x49 <=1 
C1137: x38+x50 <=1 
C1138: x38+x52 <=1 
C1139: x38+x53 <=1 
C1140: x38+x55 <=1 
C1141: x38+x56-y38_56 <=1 
C1142: x38+x58 <=1 
C1143: x38+x61 <=1 
C1144: x38+x63-y38_63 <=1 
C1145: x38+x64-y38_64 <=1 
C1146: x38+x66 <=1 
C1147: x38+x67 <=1 
C1148: x39+x40 <=1 
C1149: x39+x42-y39_42 <=1 
C1150: x39+x43-y39_43 <=1 
C1151: x39+x44 <=1 
C1152: x39+x46 <=1 
C1153: x39+x47 <=1 
C1154: x39+x53-y39_53 <=1 
C1155: x39+x54 <=1 
C1156: x39+x55-y39_55 <=1 
C1157: x39+x57-y39_57 <=1 
C1158: x39+x58 <=1 
C1159: x39+x59 <=1 
C1160: x39+x63 <=1 
C1161: x39+x64 <=1 
C1162: x39+x67 <=1 
C1163: x40+x41 <=1 
C1164: x40+x42 <=1 
C1165: x40+x43 <=1 
C1166: x40+x45-y40_45 <=1 
C1167: x40+x46 <=1 
C1168: x40+x49-y40_49 <=1 
C1169: x40+x50-y40_50 <=1 
C1170: x40+x51 <=1 
C1171: x40+x52 <=1 
C1172: x40+x53 <=1 
C1173: x40+x55-y40_55 <=1 
C1174: x40+x56-y40_56 <=1 
C1175: x40+x57 <=1 
C1176: x40+x63-y40_63 <=1 
C1177: x40+x65-y40_65 <=1 
C1178: x40+x66-y40_66 <=1 
C1179: x40+x67 <=1 
C1180: x41+x43 <=1 
C1181: x41+x44 <=1 
C1182: x41+x45-y41_45 <=1 
C1183: x41+x46 <=1 
C1184: x41+x47 <=1 
C1185: x41+x51-y41_51 <=1 
C1186: x41+x52-y41_52 <=1 
C1187: x41+x53-y41_53 <=1 
C1188: x41+x56-y41_56 <=1 
C1189: x41+x57-y41_57 <=1 
C1190: x41+x58-y41_58 <=1 
C1191: x41+x59 <=1 
C1192: x41+x60-y41_60 <=1 
C1193: x41+x63-y41_63 <=1 
C1194: x41+x64 <=1 
C1195: x41+x65-y41_65 <=1 
C1196: x41+x67 <=1 
C1197: x42+x44-y42_44 <=1 
C1198: x42+x45-y42_45 <=1 
C1199: x42+x46 <=1 
C1200: x42+x48 <=1 
C1201: x42+x49-y42_49 <=1 
C1202: x42+x51 <=1 
C1203: x42+x54-y42_54 <=1 
C1204: x42+x55-y42_55 <=1 
C1205: x42+x57 <=1 
C1206: x42+x58 <=1 
C1207: x42+x59-y42_59 <=1 
C1208: x42+x60 <=1 
C1209: x42+x61-y42_61 <=1 
C1210: x42+x62-y42_62 <=1 
C1211: x42+x65 <=1 
C1212: x43+x44-y43_44 <=1 
C1213: x43+x46-y43_46 <=1 
C1214: x43+x47 <=1 
C1215: x43+x48-y43_48 <=1 
C1216: x43+x49 <=1 
C1217: x43+x50 <=1 
C1218: x43+x51 <=1 
C1219: x43+x52-y43_52 <=1 
C1220: x43+x53 <=1 
C1221: x43+x54 <=1 
C1222: x43+x55-y43_55 <=1 
C1223: x43+x56 <=1 
C1224: x43+x57-y43_57 <=1 
C1225: x43+x58-y43_58 <=1 
C1226: x43+x60-y43_60 <=1 
C1227: x43+x61 <=1 
C1228: x43+x66-y43_66 <=1 
C1229: x43+x67 <=1 
C1230: x44+x45-y44_45 <=1 
C1231: x44+x47 <=1 
C1232: x44+x48-y44_48 <=1 
C1233: x44+x49 <=1 
C1234: x44+x50 <=1 
C1235: x44+x51-y44_51 <=1 
C1236: x44+x53 <=1 
C1237: x44+x54 <=1 
C1238: x44+x55 <=1 
C1239: x44+x56-y44_56 <=1 
C1240: x44+x57 <=1 
C1241: x44+x58 <=1 
C1242: x44+x59 <=1 
C1243: x44+x60 <=1 
C1244: x44+x62-y44_62 <=1 
C1245: x44+x63 <=1 
C1246: x44+x64 <=1 
C1247: x44+x66-y44_66 <=1 
C1248: x45+x46-y45_46 <=1 
C1249: x45+x47-y45_47 <=1 
C1250: x45+x48-y45_48 <=1 
C1251: x45+x49-y45_49 <=1 
C1252: x45+x51 <=1 
C1253: x45+x52-y45_52 <=1 
C1254: x45+x54-y45_54 <=1 
C1255: x45+x55-y45_55 <=1 
C1256: x45+x56-y45_56 <=1 
C1257: x45+x59 <=1 
C1258: x45+x60 <=1 
C1259: x45+x61 <=1 
C1260: x45+x63-y45_63 <=1 
C1261: x45+x64 <=1 
C1262: x45+x66 <=1 
C1263: x46+x49 <=1 
C1264: x46+x50-y46_50 <=1 
C1265: x46+x51-y46_51 <=1 
C1266: x46+x52 <=1 
C1267: x46+x58 <=1 
C1268: x46+x59 <=1 
C1269: x46+x60 <=1 
C1270: x46+x61 <=1 
C1271: x46+x62-y46_62 <=1 
C1272: x46+x63-y46_63 <=1 
C1273: x46+x66-y46_66 <=1 
C1274: x47+x48 <=1 
C1275: x47+x49-y47_49 <=1 
C1276: x47+x50 <=1 
C1277: x47+x52 <=1 
C1278: x47+x53-y47_53 <=1 
C1279: x47+x54 <=1 
C1280: x47+x57 <=1 
C1281: x47+x58 <=1 
C1282: x47+x64 <=1 
C1283: x47+x67-y47_67 <=1 
C1284: x48+x49 <=1 
C1285: x48+x50-y48_50 <=1 
C1286: x48+x51 <=1 
C1287: x48+x52-y48_52 <=1 
C1288: x48+x57 <=1 
C1289: x48+x58 <=1 
C1290: x48+x59-y48_59 <=1 
C1291: x48+x62 <=1 
C1292: x48+x65 <=1 
C1293: x48+x67 <=1 
C1294: x49+x50 <=1 
C1295: x49+x52-y49_52 <=1 
C1296: x49+x56 <=1 
C1297: x49+x58 <=1 
C1298: x49+x59-y49_59 <=1 
C1299: x49+x60-y49_60 <=1 
C1300: x49+x61 <=1 
C1301: x49+x62-y49_62 <=1 
C1302: x49+x63 <=1 
C1303: x49+x64 <=1 
C1304: x49+x65-y49_65 <=1 
C1305: x49+x67 <=1 
C1306: x50+x51-y50_51 <=1 
C1307: x50+x52 <=1 
C1308: x50+x54-y50_54 <=1 
C1309: x50+x55-y50_55 <=1 
C1310: x50+x58 <=1 
C1311: x50+x62 <=1 
C1312: x50+x66 <=1 
C1313: x51+x53 <=1 
C1314: x51+x56-y51_56 <=1 
C1315: x51+x60-y51_60 <=1 
C1316: x51+x61-y51_61 <=1 
C1317: x51+x62 <=1 
C1318: x51+x63-y51_63 <=1 
C1319: x51+x64 <=1 
C1320: x51+x67-y51_67 <=1 
C1321: x52+x53-y52_53 <=1 
C1322: x52+x55 <=1 
C1323: x52+x56-y52_56 <=1 
C1324: x52+x58-y52_58 <=1 
C1325: x52+x60 <=1 
C1326: x52+x61-y52_61 <=1 
C1327: x52+x62-y52_62 <=1 
C1328: x52+x63 <=1 
C1329: x52+x65 <=1 
C1330: x52+x67-y52_67 <=1 
C1331: x53+x54-y53_54 <=1 
C1332: x53+x55 <=1 
C1333: x53+x57 <=1 
C1334: x53+x59-y53_59 <=1 
C1335: x53+x62-y53_62 <=1 
C1336: x53+x64-y53_64 <=1 
C1337: x53+x67-y53_67 <=1 
C1338: x54+x55-y54_55 <=1 
C1339: x54+x56 <=1 
C1340: x54+x57 <=1 
C1341: x54+x59-y54_59 <=1 
C1342: x54+x61-y54_61 <=1 
C1343: x54+x63 <=1 
C1344: x54+x66 <=1 
C1345: x54+x67 <=1 
C1346: x55+x56-y55_56 <=1 
C1347: x55+x57-y55_57 <=1 
C1348: x55+x59 <=1 
C1349: x55+x61 <=1 
C1350: x55+x62 <=1 
C1351: x55+x64-y55_64 <=1 
C1352: x55+x66 <=1 
C1353: x56+x59 <=1 
C1354: x56+x61-y56_61 <=1 
C1355: x56+x63-y56_63 <=1 
C1356: x56+x64 <=1 
C1357: x56+x66 <=1 
C1358: x57+x58 <=1 
C1359: x57+x59-y57_59 <=1 
C1360: x57+x60-y57_60 <=1 
C1361: x57+x61 <=1 
C1362: x57+x62 <=1 
C1363: x57+x63-y57_63 <=1 
C1364: x57+x64 <=1 
C1365: x57+x65-y57_65 <=1 
C1366: x57+x66-y57_66 <=1 
C1367: x57+x67-y57_67 <=1 
C1368: x58+x60-y58_60 <=1 
C1369: x58+x61 <=1 
C1370: x58+x62 <=1 
C1371: x58+x65 <=1 
C1372: x58+x66-y58_66 <=1 
C1373: x58+x67 <=1 
C1374: x59+x62-y59_62 <=1 
C1375: x59+x65 <=1 
C1376: x60+x62 <=1 
C1377: x60+x63-y60_63 <=1 
C1378: x60+x66-y60_66 <=1 
C1379: x60+x67 <=1 
C1380: x61+x63-y61_63 <=1 
C1381: x61+x64-y61_64 <=1 
C1382: x61+x65 <=1 
C1383: x61+x66 <=1 
C1384: x62+x64 <=1 
C1385: x62+x65 <=1 
C1386: x62+x67 <=1 
C1387: x63+x64-y63_64 <=1 
C1388: x63+x66-y63_66 <=1 
C1389: x64+x65 <=1 
C1390: x64+x66-y64_66 <=1 
C1391: x64+x67-y64_67 <=1 
C1392: x65+x67-y65_67 <=1 

binary
x0
x1
x2
x3
x4
x5
x6
x7
x8
x9
x10
x11
x12
x13
x14
x15
x16
x17
x18
x19
x20
x21
x22
x23
x24
x25
x26
x27
x28
x29
x30
x31
x32
x33
x34
x35
x36
x37
x38
x39
x40
x41
x42
x43
x44
x45
x46
x47
x48
x49
x50
x51
x52
x53
x54
x55
x56
x57
x58
x59
x60
x61
x62
x63
x64
x65
x66
x67
