problem_generation/data/GISP/train/er_n=68_m=1392_p=0.60_SET2_setparam=100.00_alpha=0.50_673.sol
objective value:                                 1085
x10                                                 1 	(obj:100)
x16                                                 1 	(obj:100)
x20                                                 1 	(obj:100)
x22                                                 1 	(obj:100)
x40                                                 1 	(obj:100)
x48                                                 1 	(obj:100)
x50                                                 1 	(obj:100)
x54                                                 1 	(obj:100)
x59                                                 1 	(obj:100)
x60                                                 1 	(obj:100)
x64                                                 1 	(obj:100)
y40_50                                              1 	(obj:-1)
y10_16                                              1 	(obj:-1)
y54_59                                              1 	(obj:-1)
y16_50                                              1 	(obj:-1)
y22_60                                              1 	(obj:-1)
y22_54                                              1 	(obj:-1)
y10_20                                              1 	(obj:-1)
y16_48                                              1 	(obj:-1)
y50_54                                              1 	(obj:-1)
y20_22                                              1 	(obj:-1)
y20_40                                              1 	(obj:-1)
y22_48                                              1 	(obj:-1)
y48_50                                              1 	(obj:-1)
y48_59                                              1 	(obj:-1)
y10_50                                              1 	(obj:-1)
